c strEdges: 125  randomEdges: 504 
c degrees:  1  2 
c girth: Inf max: -43.604516  
c Hgirth mixed MAXCUT instance
c generated from an undirected graph
c to solve unweighted MaxCut
p cnf 140 1258
81 61 0
-81 -61 0
81 69 0
-81 -69 0
76 44 0
-76 -44 0
76 97 0
-76 -97 0
129 75 0
-129 -75 0
129 108 0
-129 -108 0
5 138 0
-5 -138 0
5 47 0
-5 -47 0
107 22 0
-107 -22 0
107 44 0
-107 -44 0
92 31 0
-92 -31 0
92 75 0
-92 -75 0
72 95 0
-72 -95 0
72 19 0
-72 -19 0
51 93 0
-51 -93 0
124 17 0
-124 -17 0
124 39 0
-124 -39 0
119 15 0
-119 -15 0
119 93 0
-119 -93 0
99 46 0
-99 -46 0
14 90 0
-14 -90 0
12 32 0
-12 -32 0
12 46 0
-12 -46 0
131 84 0
-131 -84 0
131 62 0
-131 -62 0
58 116 0
-58 -116 0
58 100 0
-58 -100 0
60 35 0
-60 -35 0
60 41 0
-60 -41 0
122 85 0
-122 -85 0
122 31 0
-122 -31 0
65 57 0
-65 -57 0
65 134 0
-65 -134 0
56 118 0
-56 -118 0
56 22 0
-56 -22 0
117 39 0
-117 -39 0
117 84 0
-117 -84 0
28 47 0
-28 -47 0
28 136 0
-28 -136 0
137 69 0
-137 -69 0
137 10 0
-137 -10 0
66 80 0
-66 -80 0
66 53 0
-66 -53 0
88 55 0
-88 -55 0
88 111 0
-88 -111 0
21 40 0
-21 -40 0
43 7 0
-43 -7 0
43 57 0
-43 -57 0
34 10 0
-34 -10 0
115 18 0
-115 -18 0
121 106 0
-121 -106 0
121 123 0
-121 -123 0
49 134 0
-49 -134 0
49 61 0
-49 -61 0
114 113 0
-114 -113 0
114 118 0
-114 -118 0
140 1 0
-140 -1 0
140 29 0
-140 -29 0
112 123 0
-112 -123 0
112 17 0
-112 -17 0
82 83 0
-82 -83 0
54 41 0
-54 -41 0
54 30 0
-54 -30 0
25 105 0
-25 -105 0
25 133 0
-25 -133 0
87 30 0
-87 -30 0
87 105 0
-87 -105 0
27 6 0
-27 -6 0
27 96 0
-27 -96 0
103 48 0
-103 -48 0
103 128 0
-103 -128 0
16 136 0
-16 -136 0
16 8 0
-16 -8 0
132 126 0
-132 -126 0
132 77 0
-132 -77 0
104 53 0
-104 -53 0
104 52 0
-104 -52 0
33 110 0
-33 -110 0
33 26 0
-33 -26 0
101 20 0
-101 -20 0
101 55 0
-101 -55 0
45 23 0
-45 -23 0
42 77 0
-42 -77 0
71 26 0
-71 -26 0
73 3 0
-73 -3 0
73 116 0
-73 -116 0
109 96 0
-109 -96 0
24 125 0
-24 -125 0
24 2 0
-24 -2 0
13 108 0
-13 -108 0
13 83 0
-13 -83 0
89 139 0
-89 -139 0
89 20 0
-89 -20 0
102 133 0
-102 -133 0
102 11 0
-102 -11 0
38 59 0
-38 -59 0
38 48 0
-38 -48 0
91 2 0
-91 -2 0
91 90 0
-91 -90 0
37 36 0
-37 -36 0
120 11 0
-120 -11 0
120 74 0
-120 -74 0
50 111 0
-50 -111 0
50 32 0
-50 -32 0
135 67 0
-135 -67 0
94 63 0
-94 -63 0
94 80 0
-94 -80 0
79 62 0
-79 -62 0
79 110 0
-79 -110 0
130 29 0
-130 -29 0
130 35 0
-130 -35 0
86 64 0
-86 -64 0
86 85 0
-86 -85 0
78 8 0
-78 -8 0
78 63 0
-78 -63 0
9 97 0
-9 -97 0
70 52 0
-70 -52 0
4 128 0
-4 -128 0
4 67 0
-4 -67 0
98 19 0
-98 -19 0
98 1 0
-98 -1 0
127 100 0
-127 -100 0
127 95 0
-127 -95 0
68 74 0
-68 -74 0
68 139 0
-68 -139 0
44 110 0
-44 -110 0
101 38 0
-101 -38 0
137 73 0
-137 -73 0
9 111 0
-9 -111 0
14 108 0
-14 -108 0
88 110 0
-88 -110 0
17 19 0
-17 -19 0
61 40 0
-61 -40 0
12 84 0
-12 -84 0
119 74 0
-119 -74 0
18 97 0
-18 -97 0
135 84 0
-135 -84 0
129 94 0
-129 -94 0
33 63 0
-33 -63 0
47 29 0
-47 -29 0
13 11 0
-13 -11 0
107 86 0
-107 -86 0
25 6 0
-25 -6 0
2 11 0
-2 -11 0
24 47 0
-24 -47 0
86 2 0
-86 -2 0
6 97 0
-6 -97 0
51 40 0
-51 -40 0
66 87 0
-66 -87 0
25 70 0
-25 -70 0
60 40 0
-60 -40 0
6 63 0
-6 -63 0
112 44 0
-112 -44 0
14 75 0
-14 -75 0
60 25 0
-60 -25 0
58 16 0
-58 -16 0
7 139 0
-7 -139 0
89 3 0
-89 -3 0
101 130 0
-101 -130 0
101 63 0
-101 -63 0
12 70 0
-12 -70 0
140 37 0
-140 -37 0
44 96 0
-44 -96 0
58 134 0
-58 -134 0
73 110 0
-73 -110 0
27 95 0
-27 -95 0
124 4 0
-124 -4 0
135 62 0
-135 -62 0
42 128 0
-42 -128 0
121 85 0
-121 -85 0
120 4 0
-120 -4 0
119 19 0
-119 -19 0
93 59 0
-93 -59 0
38 86 0
-38 -86 0
76 109 0
-76 -109 0
86 95 0
-86 -95 0
58 87 0
-58 -87 0
86 41 0
-86 -41 0
30 128 0
-30 -128 0
13 96 0
-13 -96 0
5 51 0
-5 -51 0
50 125 0
-50 -125 0
121 127 0
-121 -127 0
25 29 0
-25 -29 0
17 40 0
-17 -40 0
50 138 0
-50 -138 0
5 88 0
-5 -88 0
17 46 0
-17 -46 0
56 41 0
-56 -41 0
125 128 0
-125 -128 0
107 138 0
-107 -138 0
47 123 0
-47 -123 0
34 82 0
-34 -82 0
9 29 0
-9 -29 0
27 52 0
-27 -52 0
46 30 0
-46 -30 0
14 3 0
-14 -3 0
34 61 0
-34 -61 0
14 69 0
-14 -69 0
17 111 0
-17 -111 0
131 41 0
-131 -41 0
22 110 0
-22 -110 0
107 105 0
-107 -105 0
54 13 0
-54 -13 0
115 114 0
-115 -114 0
129 55 0
-129 -55 0
104 48 0
-104 -48 0
16 29 0
-16 -29 0
92 86 0
-92 -86 0
131 87 0
-131 -87 0
65 8 0
-65 -8 0
3 100 0
-3 -100 0
78 133 0
-78 -133 0
55 20 0
-55 -20 0
10 23 0
-10 -23 0
112 108 0
-112 -108 0
9 85 0
-9 -85 0
126 3 0
-126 -3 0
75 111 0
-75 -111 0
46 125 0
-46 -125 0
32 100 0
-32 -100 0
95 134 0
-95 -134 0
21 139 0
-21 -139 0
103 26 0
-103 -26 0
56 26 0
-56 -26 0
68 85 0
-68 -85 0
9 96 0
-9 -96 0
5 113 0
-5 -113 0
40 29 0
-40 -29 0
85 123 0
-85 -123 0
57 139 0
-57 -139 0
45 52 0
-45 -52 0
129 22 0
-129 -22 0
70 116 0
-70 -116 0
45 136 0
-45 -136 0
107 55 0
-107 -55 0
102 97 0
-102 -97 0
92 25 0
-92 -25 0
107 2 0
-107 -2 0
107 28 0
-107 -28 0
115 38 0
-115 -38 0
132 138 0
-132 -138 0
58 22 0
-58 -22 0
82 93 0
-82 -93 0
118 77 0
-118 -77 0
117 125 0
-117 -125 0
51 4 0
-51 -4 0
78 11 0
-78 -11 0
109 11 0
-109 -11 0
54 118 0
-54 -118 0
39 30 0
-39 -30 0
66 32 0
-66 -32 0
58 104 0
-58 -104 0
9 47 0
-9 -47 0
117 112 0
-117 -112 0
11 62 0
-11 -62 0
132 20 0
-132 -20 0
49 19 0
-49 -19 0
130 55 0
-130 -55 0
72 134 0
-72 -134 0
109 15 0
-109 -15 0
61 59 0
-61 -59 0
31 128 0
-31 -128 0
25 67 0
-25 -67 0
113 36 0
-113 -36 0
37 2 0
-37 -2 0
76 39 0
-76 -39 0
60 118 0
-60 -118 0
137 48 0
-137 -48 0
29 8 0
-29 -8 0
16 91 0
-16 -91 0
75 36 0
-75 -36 0
93 136 0
-93 -136 0
79 31 0
-79 -31 0
14 17 0
-14 -17 0
130 86 0
-130 -86 0
60 56 0
-60 -56 0
116 110 0
-116 -110 0
88 42 0
-88 -42 0
61 74 0
-61 -74 0
80 97 0
-80 -97 0
131 105 0
-131 -105 0
103 24 0
-103 -24 0
113 77 0
-113 -77 0
21 27 0
-21 -27 0
139 2 0
-139 -2 0
23 2 0
-23 -2 0
31 74 0
-31 -74 0
27 85 0
-27 -85 0
6 139 0
-6 -139 0
127 93 0
-127 -93 0
58 62 0
-58 -62 0
39 96 0
-39 -96 0
112 83 0
-112 -83 0
1 29 0
-1 -29 0
13 69 0
-13 -69 0
48 108 0
-48 -108 0
140 39 0
-140 -39 0
82 109 0
-82 -109 0
49 79 0
-49 -79 0
86 74 0
-86 -74 0
130 138 0
-130 -138 0
51 80 0
-51 -80 0
88 29 0
-88 -29 0
92 104 0
-92 -104 0
49 132 0
-49 -132 0
132 22 0
-132 -22 0
37 128 0
-37 -128 0
33 84 0
-33 -84 0
33 86 0
-33 -86 0
41 2 0
-41 -2 0
123 64 0
-123 -64 0
96 19 0
-96 -19 0
138 83 0
-138 -83 0
56 140 0
-56 -140 0
88 2 0
-88 -2 0
43 93 0
-43 -93 0
123 53 0
-123 -53 0
66 74 0
-66 -74 0
136 20 0
-136 -20 0
68 10 0
-68 -10 0
137 128 0
-137 -128 0
94 67 0
-94 -67 0
72 40 0
-72 -40 0
107 42 0
-107 -42 0
46 35 0
-46 -35 0
13 116 0
-13 -116 0
24 95 0
-24 -95 0
129 110 0
-129 -110 0
132 110 0
-132 -110 0
92 132 0
-92 -132 0
130 46 0
-130 -46 0
68 52 0
-68 -52 0
102 3 0
-102 -3 0
120 52 0
-120 -52 0
71 85 0
-71 -85 0
94 35 0
-94 -35 0
101 36 0
-101 -36 0
114 4 0
-114 -4 0
78 48 0
-78 -48 0
72 112 0
-72 -112 0
114 11 0
-114 -11 0
81 12 0
-81 -12 0
1 108 0
-1 -108 0
15 106 0
-15 -106 0
17 1 0
-17 -1 0
54 101 0
-54 -101 0
22 6 0
-22 -6 0
104 96 0
-104 -96 0
124 128 0
-124 -128 0
103 30 0
-103 -30 0
78 32 0
-78 -32 0
82 19 0
-82 -19 0
115 31 0
-115 -31 0
17 134 0
-17 -134 0
21 62 0
-21 -62 0
140 23 0
-140 -23 0
49 138 0
-49 -138 0
87 100 0
-87 -100 0
124 69 0
-124 -69 0
1 105 0
-1 -105 0
26 63 0
-26 -63 0
75 123 0
-75 -123 0
104 19 0
-104 -19 0
131 75 0
-131 -75 0
71 6 0
-71 -6 0
15 111 0
-15 -111 0
105 63 0
-105 -63 0
14 86 0
-14 -86 0
17 90 0
-17 -90 0
27 73 0
-27 -73 0
96 97 0
-96 -97 0
61 106 0
-61 -106 0
55 110 0
-55 -110 0
103 68 0
-103 -68 0
27 7 0
-27 -7 0
57 6 0
-57 -6 0
28 91 0
-28 -91 0
99 43 0
-99 -43 0
20 63 0
-20 -63 0
129 1 0
-129 -1 0
14 62 0
-14 -62 0
5 32 0
-5 -32 0
42 63 0
-42 -63 0
75 57 0
-75 -57 0
9 3 0
-9 -3 0
33 109 0
-33 -109 0
22 111 0
-22 -111 0
140 102 0
-140 -102 0
65 100 0
-65 -100 0
87 135 0
-87 -135 0
3 64 0
-3 -64 0
12 103 0
-12 -103 0
33 130 0
-33 -130 0
86 116 0
-86 -116 0
136 97 0
-136 -97 0
71 94 0
-71 -94 0
99 25 0
-99 -25 0
112 36 0
-112 -36 0
119 33 0
-119 -33 0
12 82 0
-12 -82 0
60 69 0
-60 -69 0
116 97 0
-116 -97 0
98 134 0
-98 -134 0
28 48 0
-28 -48 0
10 139 0
-10 -139 0
121 83 0
-121 -83 0
58 48 0
-58 -48 0
21 16 0
-21 -16 0
38 96 0
-38 -96 0
135 2 0
-135 -2 0
65 97 0
-65 -97 0
58 52 0
-58 -52 0
23 59 0
-23 -59 0
33 75 0
-33 -75 0
105 128 0
-105 -128 0
73 118 0
-73 -118 0
25 23 0
-25 -23 0
75 23 0
-75 -23 0
129 99 0
-129 -99 0
81 86 0
-81 -86 0
4 39 0
-4 -39 0
127 18 0
-127 -18 0
121 31 0
-121 -31 0
130 64 0
-130 -64 0
81 32 0
-81 -32 0
126 96 0
-126 -96 0
117 126 0
-117 -126 0
72 66 0
-72 -66 0
49 85 0
-49 -85 0
114 30 0
-114 -30 0
80 19 0
-80 -19 0
24 18 0
-24 -18 0
47 40 0
-47 -40 0
15 80 0
-15 -80 0
88 24 0
-88 -24 0
111 67 0
-111 -67 0
101 1 0
-101 -1 0
47 83 0
-47 -83 0
103 84 0
-103 -84 0
54 11 0
-54 -11 0
119 131 0
-119 -131 0
46 113 0
-46 -113 0
40 10 0
-40 -10 0
131 108 0
-131 -108 0
56 13 0
-56 -13 0
82 85 0
-82 -85 0
58 120 0
-58 -120 0
38 94 0
-38 -94 0
1 126 0
-1 -126 0
122 1 0
-122 -1 0
91 63 0
-91 -63 0
132 123 0
-132 -123 0
73 61 0
-73 -61 0
9 105 0
-9 -105 0
135 139 0
-135 -139 0
140 106 0
-140 -106 0
30 77 0
-30 -77 0
17 133 0
-17 -133 0
126 62 0
-126 -62 0
35 26 0
-35 -26 0
14 134 0
-14 -134 0
131 123 0
-131 -123 0
83 30 0
-83 -30 0
125 111 0
-125 -111 0
58 82 0
-58 -82 0
44 3 0
-44 -3 0
69 48 0
-69 -48 0
47 108 0
-47 -108 0
7 2 0
-7 -2 0
76 48 0
-76 -48 0
61 18 0
-61 -18 0
103 29 0
-103 -29 0
22 126 0
-22 -126 0
33 106 0
-33 -106 0
104 15 0
-104 -15 0
92 55 0
-92 -55 0
72 59 0
-72 -59 0
34 27 0
-34 -27 0
35 40 0
-35 -40 0
76 113 0
-76 -113 0
24 134 0
-24 -134 0
138 10 0
-138 -10 0
72 14 0
-72 -14 0
42 69 0
-42 -69 0
80 100 0
-80 -100 0
83 105 0
-83 -105 0
32 23 0
-32 -23 0
21 37 0
-21 -37 0
89 111 0
-89 -111 0
24 46 0
-24 -46 0
34 42 0
-34 -42 0
76 83 0
-76 -83 0
37 77 0
-37 -77 0
42 136 0
-42 -136 0
124 63 0
-124 -63 0
121 98 0
-121 -98 0
80 139 0
-80 -139 0
66 97 0
-66 -97 0
86 97 0
-86 -97 0
91 18 0
-91 -18 0
133 36 0
-133 -36 0
115 134 0
-115 -134 0
50 136 0
-50 -136 0
16 62 0
-16 -62 0
45 26 0
-45 -26 0
43 13 0
-43 -13 0
140 33 0
-140 -33 0
45 84 0
-45 -84 0
37 78 0
-37 -78 0
65 71 0
-65 -71 0
137 40 0
-137 -40 0
93 15 0
-93 -15 0
30 136 0
-30 -136 0
87 7 0
-87 -7 0
56 90 0
-56 -90 0
137 6 0
-137 -6 0
130 98 0
-130 -98 0
6 67 0
-6 -67 0
137 37 0
-137 -37 0
130 44 0
-130 -44 0
118 48 0
-118 -48 0
79 17 0
-79 -17 0
112 136 0
-112 -136 0
6 74 0
-6 -74 0
65 46 0
-65 -46 0
32 19 0
-32 -19 0
115 59 0
-115 -59 0
112 63 0
-112 -63 0
13 70 0
-13 -70 0
34 40 0
-34 -40 0
43 104 0
-43 -104 0
45 98 0
-45 -98 0
135 57 0
-135 -57 0
81 40 0
-81 -40 0
14 104 0
-14 -104 0
107 50 0
-107 -50 0
80 10 0
-80 -10 0
114 128 0
-114 -128 0
110 64 0
-110 -64 0
113 8 0
-113 -8 0
14 116 0
-14 -116 0
33 98 0
-33 -98 0
76 90 0
-76 -90 0
46 105 0
-46 -105 0
31 95 0
-31 -95 0
131 115 0
-131 -115 0
121 26 0
-121 -26 0
115 4 0
-115 -4 0
130 127 0
-130 -127 0
5 53 0
-5 -53 0
37 41 0
-37 -41 0
87 113 0
-87 -113 0
6 126 0
-6 -126 0
119 56 0
-119 -56 0
80 6 0
-80 -6 0
80 62 0
-80 -62 0
101 89 0
-101 -89 0
94 139 0
-94 -139 0
95 106 0
-95 -106 0
91 55 0
-91 -55 0
69 53 0
-69 -53 0
42 118 0
-42 -118 0
49 114 0
-49 -114 0
131 74 0
-131 -74 0
65 130 0
-65 -130 0
31 77 0
-31 -77 0
82 57 0
-82 -57 0
114 74 0
-114 -74 0
135 61 0
-135 -61 0
28 35 0
-28 -35 0
24 23 0
-24 -23 0
34 112 0
-34 -112 0
95 55 0
-95 -55 0
121 102 0
-121 -102 0
99 97 0
-99 -97 0
54 113 0
-54 -113 0
10 128 0
-10 -128 0
21 77 0
-21 -77 0
92 49 0
-92 -49 0
95 23 0
-95 -23 0
18 36 0
-18 -36 0
78 3 0
-78 -3 0
87 38 0
-87 -38 0
66 140 0
-66 -140 0
7 128 0
-7 -128 0
65 6 0
-65 -6 0
140 48 0
-140 -48 0
73 77 0
-73 -77 0
45 135 0
-45 -135 0
16 78 0
-16 -78 0
93 118 0
-93 -118 0
88 9 0
-88 -9 0
91 98 0
-91 -98 0
60 103 0
-60 -103 0
25 123 0
-25 -123 0
103 47 0
-103 -47 0
123 110 0
-123 -110 0
28 94 0
-28 -94 0
98 18 0
-98 -18 0
22 134 0
-22 -134 0
81 41 0
-81 -41 0
79 10 0
-79 -10 0
87 6 0
-87 -6 0
27 8 0
-27 -8 0
84 63 0
-84 -63 0
94 30 0
-94 -30 0
81 56 0
-81 -56 0
140 40 0
-140 -40 0
82 18 0
-82 -18 0
25 102 0
-25 -102 0
129 115 0
-129 -115 0
45 6 0
-45 -6 0
60 116 0
-60 -116 0
28 86 0
-28 -86 0
115 118 0
-115 -118 0
43 22 0
-43 -22 0
4 47 0
-4 -47 0
16 126 0
-16 -126 0
70 133 0
-70 -133 0
14 132 0
-14 -132 0
21 53 0
-21 -53 0
30 64 0
-30 -64 0
115 98 0
-115 -98 0
112 101 0
-112 -101 0
129 54 0
-129 -54 0
72 37 0
-72 -37 0
14 32 0
-14 -32 0
22 31 0
-22 -31 0
